c Sudoku solution
p cnf 729 0
226 0
261 0
293 0
311 0
333 0
347 0
358 0
362 0
515 0
532 0
549 0
576 0
619 0
628 0
645 0
244 0
657 0
796 0
386 0
829 0
831 0
866 0
636 0
916 0
883 0
898 0
842 0
452 0
446 0
551 0
421 0
143 0
156 0
934 0
817 0
437 0
127 0
999 0
597 0
379 0
489 0
875 0
854 0
495 0
394 0
114 0
212 0
325 0
413 0
524 0
673 0
563 0
664 0
468 0
474 0
588 0
718 0
735 0
741 0
948 0
784 0
138 0
239 0
278 0
287 0
185 0
169 0
255 0
953 0
759 0
965 0
767 0
723 0
922 0
772 0
171 0
192 0
977 0
981 0
682 0
691 0
